p cnf 20 20
13 -3 2 0
9 2 18 0
-7 -18 -9 0
-19 15 17 0
3 -17 8 0
12 4 -15 0
-15 -9 18 0
1 -18 20 0
11 -10 3 0
8 14 -7 0
-19 -17 9 0
-10 -2 19 0
11 -3 10 0
5 13 -2 0
-9 14 -13 0
19 -14 3 0
-17 -12 -5 0
-15 5 -4 0
17 -4 12 0
6 8 -16 0
